36 22
6 81
1 535
9 620
4 792
7 591
14 767
13 468
11 224
2 781
13 407
12 189
17 233
16 613
10 508
8 663
7 909
20 191
1 529
12 723
18 81
16 525
20 174
21 19
6 617
1 717
15 617
10 634
18 152
16 349
16 573
1 815
4 579
2 322
9 168
14 915
19 628
